Route #1: 2 34 48 40 7 25 49 9 33
Route #2: 36 43 11 5
Route #3: 4 18 26 47 24 16
Route #4: 19 29 28 32
Route #5: 8 17 42 21 1
Route #6: 41 45 39 35 10
Route #7: 3 13 38 22 46 23 15
Route #8: 6 31 14 30 20 27 12 37 44
Cost 1348